n_res = 4;
rc = [ 25, 21, 26, 21 ];
n_tasks = 30;
d = [ 9, 5, 3, 3, 4, 5, 4, 9, 9, 8, 4, 5, 4, 6, 3, 6, 3, 6, 9, 7, 10, 7, 1, 8, 2, 3, 10, 4, 2, 6 ];
rr = [| 0, 7, 0, 8, 3, 7, 6, 0, 6, 0, 1, 7, 9, 7, 7, 0, 3, 1, 5, 4, 5, 6, 1, 5, 0, 0, 2, 4, 0, 0
      | 8, 0, 0, 3, 5, 3, 8, 6, 9, 4, 0, 9, 1, 9, 6, 10, 5, 0, 7, 0, 0, 0, 5, 6, 4, 6, 5, 0, 8, 5
      | 5, 8, 7, 0, 2, 5, 2, 10, 8, 0, 10, 9, 2, 2, 3, 0, 0, 7, 7, 10, 1, 2, 8, 3, 2, 0, 7, 2, 5, 2
      | 4, 7, 2, 4, 1, 10, 0, 9, 7, 7, 7, 3, 2, 8, 0, 1, 8, 0, 0, 0, 8, 7, 0, 6, 6, 1, 0, 3, 2, 9 |];
suc = [ { 2 }, 
        { 1 }, 
        { 4 }, 
        { 3 }, 
        { 6 }, 
        { 5 }, 
        { 8 }, 
        { 7 }, 
        { 10 }, 
        { 9 }, 
        { 12 }, 
        { 11 }, 
        { 14 }, 
        { 13 }, 
        { 16 }, 
        { 15 }, 
        { 18 }, 
        { 17 }, 
        { 20 }, 
        { 19 }, 
        { 22 }, 
        { 21 }, 
        { 24 }, 
        { 23 }, 
        { 26 }, 
        { 25 }, 
        { 28 }, 
        { 27 }, 
        { 30 }, 
        { 29 }]; 
